SCIP Status        : solving was interrupted [time limit reached]
Total Time         :    3600.01
  solving          :    3600.00
  presolving       :       0.37 (included in solving)
  reading          :       0.01
  copying          :       1.64 (52 #copies) (minimal 0.00, maximal 0.16, average 0.03)
Original Problem   :
  Problem name     : bbbenchmark/g05_100.3.cut
  Variables        : 101 (100 binary, 0 integer, 0 implicit integer, 1 continuous)
  Constraints      : 1 initial, 1 maximal
  Objective        : minimize, 1 non-zeros (abs.min = 1, abs.max = 1)
Presolved Problem  :
  Problem name     : t_bbbenchmark/g05_100.3.cut
  Variables        : 1898 (100 binary, 0 integer, 1784 implicit integer, 14 continuous)
  Constraints      : 1824 initial, 11827 maximal
  Objective        : minimize, 1 non-zeros (abs.min = 1, abs.max = 1)
  Nonzeros         : 8697 constraint, 202 clique table
Presolvers         :   ExecTime  SetupTime  Calls  FixedVars   AggrVars   ChgTypes  ChgBounds   AddHoles    DelCons    AddCons   ChgSides   ChgCoefs
  boundshift       :       0.00       0.00      0          0          0          0          0          0          0          0          0          0
  convertinttobin  :       0.00       0.00      0          0          0          0          0          0          0          0          0          0
  domcol           :       0.00       0.00      1          0          0          0          0          0          0          0          0          0
  dualagg          :       0.00       0.00      0          0          0          0          0          0          0          0          0          0
  dualcomp         :       0.00       0.00      1          0          0          0          0          0          0          0          0          0
  dualinfer        :       0.00       0.00      0          0          0          0          0          0          0          0          0          0
  dualsparsify     :       0.00       0.00      1          0          0          0          0          0          0          0          0          0
  gateextraction   :       0.00       0.00      0          0          0          0          0          0          0          0          0          0
  implics          :       0.00       0.00      2          0          0          0          0          0          0          0          0          0
  inttobinary      :       0.00       0.00      0          0          0          0          0          0          0          0          0          0
  qpkktref         :       0.00       0.00      0          0          0          0          0          0          0          0          0          0
  redvub           :       0.00       0.00      0          0          0          0          0          0          0          0          0          0
  sparsify         :       0.00       0.00      1          0          0          0          0          0          0          0          0          0
  stuffing         :       0.00       0.00      0          0          0          0          0          0          0          0          0          0
  trivial          :       0.00       0.00      4          0          0          0          0          0          0          0          0          0
  tworowbnd        :       0.00       0.00      0          0          0          0          0          0          0          0          0          0
  dualfix          :       0.00       0.00      4          0          0          0          0          0          0          0          0          0
  genvbounds       :       0.00       0.00      0          0          0          0          0          0          0          0          0          0
  probing          :       0.31       0.00      1          0          0          0          0          0          0          0          0          0
  pseudoobj        :       0.00       0.00      1          0          0          0          1          0          0          0          0          0
  symmetry         :       0.00       0.00      0          0          0          0          0          0          0          0          0          0
  vbounds          :       0.00       0.00      1          0          0          0          0          0          0          0          0          0
  varbound         :       0.00       0.00      2          0          0          0          0          0          0          0          0          0
  and              :       0.00       0.00      2          0          0          0          0          0          0          0          0          0
  linear           :       0.00       0.00      2          0          0          0          0          0          0          0          0          0
  logicor          :       0.00       0.00      0          0          0          0          0          0          0          0          0          0
  bounddisjunction :       0.00       0.00      0          0          0          0          0          0          0          0          0          0
  nonlinear        :       0.05       0.00      5          0          0          0          1          0          0       1823          0          0
  benders          :       0.00       0.00      0          0          0          0          0          0          0          0          0          0
  components       :       0.01       0.00      1          0          0          0          0          0          0          0          0          0
  root node        :          -          -      -          0          -          -         13          -          -          -          -          -
Constraints        :     Number  MaxNumber  #Separate #Propagate    #EnfoLP    #EnfoRelax  #EnfoPS    #Check   #ResProp    Cutoffs    DomReds       Cuts    Applied      Conss   Children
  benderslp        :          0          0          0          0     104674          0          0      10644          0          0          0          0          0          0          0
  integral         :          0          0          0          0     104674          0          0      10644          0          0       2848          0          0       1573     207460
  varbound         :         13         13        121     658354          0          0          0         60          0          0      57626          0          0          0          0
  and              :       1784       1784     119227     753682          3          0          0         60     678284         25    1062037        559        551          0          0
  linear           :         27+        52        121     753698          3          0          0         58       1739         22     287635          0          0          0          0
  logicor          :          0+      9826          0     129792          0          0          0          0       1037        616        188          0          0          0          0
  bounddisjunction :          0+      1012          0      68565          0          0          0          0          7         80          4          0          0          0          0
  benders          :          0          0          0          0          3          0          0         26          0          0          0          0          0          0          0
  countsols        :          0          0          0          0          3          0          0         26          0          0          0          0          0          0          0
  components       :          0          0          0          0          0          0          0          0          0          0          0          0          0          0          0
Constraint Timings :  TotalTime  SetupTime   Separate  Propagate     EnfoLP     EnfoPS     EnfoRelax   Check    ResProp    SB-Prop
  benderslp        :       0.16       0.00       0.00       0.00       0.15       0.00       0.00       0.01       0.00       0.00
  integral         :      73.04       0.00       0.00       0.00      73.04       0.00       0.00       0.00       0.00       0.00
  varbound         :       0.92       0.00       0.00       0.91       0.00       0.00       0.00       0.00       0.00       0.01
  and              :     107.63       0.00      76.78      30.00       0.00       0.00       0.00       0.01       0.37       0.47
  linear           :       4.13       0.00       0.10       3.94       0.00       0.00       0.00       0.00       0.03       0.06
  logicor          :      15.52       0.00       0.00      15.49       0.00       0.00       0.00       0.00       0.00       0.03
  bounddisjunction :       2.49       0.00       0.00       2.49       0.00       0.00       0.00       0.00       0.00       0.00
  benders          :       0.00       0.00       0.00       0.00       0.00       0.00       0.00       0.00       0.00       0.00
  countsols        :       0.00       0.00       0.00       0.00       0.00       0.00       0.00       0.00       0.00       0.00
  components       :       0.13       0.00       0.00       0.13       0.00       0.00       0.00       0.00       0.00       0.00
Propagators        : #Propagate   #ResProp    Cutoffs    DomReds
  dualfix          :          4          0          0          0
  genvbounds       :          0          0          0          0
  nlobbt           :          0          0          0          0
  obbt             :          0          0          0          0
  probing          :          0          0          0          0
  pseudoobj        :     415564          0          0         16
  redcost          :     232330          0          0      59273
  rootredcost      :         12          0          0          0
  symmetry         :          0          0          0          0
  vbounds          :     111590          0          0          0
Propagator Timings :  TotalTime  SetupTime   Presolve  Propagate    ResProp    SB-Prop
  dualfix          :       0.00       0.00       0.00       0.00       0.00       0.00
  genvbounds       :       0.44       0.00       0.00       0.44       0.00       0.00
  nlobbt           :       0.00       0.00       0.00       0.00       0.00       0.00
  obbt             :       0.01       0.00       0.00       0.01       0.00       0.00
  probing          :       0.31       0.00       0.31       0.00       0.00       0.00
  pseudoobj        :       0.78       0.00       0.00       0.76       0.00       0.02
  redcost          :      13.36       0.00       0.00      13.36       0.00       0.00
  rootredcost      :       0.67       0.00       0.00       0.67       0.00       0.00
  symmetry         :       0.27       0.00       0.00       0.27       0.00       0.00
  vbounds          :       0.63       0.00       0.00       0.62       0.00       0.01
Conflict Analysis  :       Time      Calls    Success    DomReds  Conflicts   Literals    Reconvs ReconvLits   Dualrays   Nonzeros   LP Iters   (pool size: [10000,10000])
  propagation      :       0.01        721        485          -        596       64.3          0        0.0          -          -          -
  infeasible LP    :       0.32        169        169          -       6507      130.0          0        0.0        223      174.4          0
  bound exceed. LP :      30.35       9657       8984          -     190034      106.9          2       49.5          0        0.0      75582
  strong branching :       0.00          0          0          -          0        0.0          0        0.0          -          -          0
  pseudo solution  :       0.00          0          0          -          0        0.0          0        0.0          -          -          -
  applied globally :       0.83          -          -          0      44867      115.9          -          -        223          -          -
  applied locally  :          -          -          -          0          0        0.0          -          -          0          -          -
Separators         :   ExecTime  SetupTime      Calls  RootCalls    Cutoffs    DomReds  FoundCuts ViaPoolAdd  DirectAdd    Applied ViaPoolApp  DirectApp      Conss
  cut pool         :       5.61          -      25852        147          -          -      34599    1359955          -          -          -          -          -    (maximal pool size:       4348)
  aggregation      :     335.64       0.00       4730        121          0          0          3          0          0          0          0          0          0
  > cmir           :          -          -          -          -          -          -          -          0          0          0          0          0          -
  > flowcover      :          -          -          -          -          -          -          -          0          0          0          0          0          -
  > knapsackcover  :          -          -          -          -          -          -          -          0          0          0          0          0          -
  cgmip            :       0.00       0.00          0          0          0          0          0          0          0          0          0          0          0
  clique           :       0.00       0.00        121        121          0          0          0          0          0          0          0          0          0
  closecuts        :       0.00       0.00          0          0          0          0          0          0          0          0          0          0          0
  convexproj       :       0.00       0.00          0          0          0          0          0          0          0          0          0          0          0
  disjunctive      :       0.00       0.00          0          0          0          0          0          0          0          0          0          0          0
  eccuts           :       0.00       0.00          0          0          0          0          0          0          0          0          0          0          0
  gauge            :       0.00       0.00          0          0          0          0          0          0          0          0          0          0          0
  gomory           :       0.00       0.00          0          0          0          0          0          0          0          0          0          0          0
  > gomorymi       :          -          -          -          -          -          -          -          0          0          0          0          0          -
  > strongcg       :          -          -          -          -          -          -          -          0          0          0          0          0          -
  impliedbounds    :       0.46       0.00       4730        121          0          0          1          0          0          0          0          0          0
  interlattice     :       0.28       0.00         40         40          0          0         40          0         40         39          0         39          0
  interminor       :       0.00       0.00          0          0          0          0          0          0          0          0          0          0          0
  intersub         :       1.35       0.00         40         40          0          0         40          0         40         40          0         40          0
  intobj           :       0.00       0.00          0          0          0          0          0          0          0          0          0          0          0
  mcf              :       0.00       0.00          1          1          0          0          0          0          0          0          0          0          0
  minor            :       0.01       0.00          0          0          0          0          0          0          0          0          0          0          0
  mixing           :       0.00       0.00       4730        121          0          0          0          0          0          0          0          0          0
  oddcycle         :       0.00       0.00          0          0          0          0          0          0          0          0          0          0          0
  rapidlearning    :       0.03       0.00          0          0          0          0          0          0          0          0          0          0          0
  rlt              :       0.00       0.00         10         10          0          0          0          0          0          0          0          0          0
  zerohalf         :      40.07       0.00       4250         20          0          0      34595    1359955          0     180971     180971          0          0
Cutselectors       :   ExecTime  SetupTime      Calls  RootCalls   Selected     Forced   Filtered  RootSelec   RootForc   RootFilt 
  hybrid           :       1.30       0.00      14312        119     181601          0    1178993        290          0         42
Pricers            :   ExecTime  SetupTime      Calls       Vars
  problem variables:       0.00          -          0          0
Branching Rules    :   ExecTime  SetupTime   BranchLP  BranchExt   BranchPS    Cutoffs    DomReds       Cuts      Conss   Children
  allfullstrong    :       0.00       0.00          0          0          0          0          0          0          0          0
  cloud            :       0.00       0.00          0          0          0          0          0          0          0          0
  distribution     :       0.00       0.00          0          0          0          0          0          0          0          0
  fullstrong       :       0.00       0.00          0          0          0          0          0          0          0          0
  inference        :       0.00       0.00          0          0          0          0          0          0          0          0
  leastinf         :       0.00       0.00          0          0          0          0          0          0          0          0
  lookahead        :       0.00       0.00          0          0          0          0          0          0          0          0
  mostinf          :       0.00       0.00          0          0          0          0          0          0          0          0
  multaggr         :       0.00       0.00          0          0          0          0          0          0          0          0
  nodereopt        :       0.00       0.00          0          0          0          0          0          0          0          0
  pscost           :       0.00       0.00          0          0          0          0          0          0          0          0
  random           :       0.00       0.00          0          0          0          0          0          0          0          0
  relpscost        :      72.72       0.00     104671          0          0          0       2848          0       1935     207460
  vanillafullstrong:       0.00       0.00          0          0          0          0          0          0          0          0
Primal Heuristics  :   ExecTime  SetupTime      Calls      Found       Best
  LP solutions     :       0.00          -          -          3          3
  relax solutions  :       0.00          -          -          0          0
  pseudo solutions :       0.00          -          -          0          0
  strong branching :       0.06          -          -          0          0
  actconsdiving    :       0.00       0.00          0          0          0
  adaptivediving   :       4.35       0.00         32          0          0
  alns             :       5.37       0.00         23          5          5
  bound            :       0.00       0.00          0          0          0
  clique           :       0.01       0.00          1          0          0
  coefdiving       :       0.00       0.00          0          0          0
  completesol      :       0.00       0.00          0          0          0
  conflictdiving   :     167.12       0.00       1469          0          0
  crossover        :       4.25       0.00          7          2          2
  dins             :       0.00       0.00          0          0          0
  distributiondivin:      72.06       0.00        384          0          0
  dps              :       0.00       0.00          0          0          0
  dualval          :       0.00       0.00          0          0          0
  farkasdiving     :       0.02       0.00          0          0          0
  feaspump         :       0.42       0.00          1          1          1
  fixandinfer      :       0.00       0.00          0          0          0
  fracdiving       :      54.71       0.00        516          0          0
  gins             :       0.07       0.00          0          0          0
  guideddiving     :      56.64       0.00        497          2          2
  indicator        :       0.15       0.00          0          0          0
  indicatordiving  :       0.00       0.00          0          0          0
  intdiving        :       0.00       0.00          0          0          0
  intshifting      :       0.65       0.00         99          0          0
  linesearchdiving :      55.96       0.00        521          0          0
  localbranching   :       0.00       0.00          0          0          0
  locks            :       0.01       0.00          1          0          0
  lpface           :       0.13       0.00          0          0          0
  mpec             :     130.41       0.00         11          1          1
  multistart       :       0.00       0.00          0          0          0
  mutation         :       0.00       0.00          0          0          0
  nlpdiving        :      16.11       0.00          3          0          0
  objpscostdiving  :      37.80       0.00         46          4          0
  octane           :       0.00       0.00          0          0          0
  ofins            :       0.14       0.00          0          0          0
  oneopt           :       0.14       0.00         17          0          0
  padm             :       0.00       0.00          0          0          0
  proximity        :       0.00       0.00          0          0          0
  pscostdiving     :      54.15       0.00        425          1          1
  randrounding     :       0.99       0.00      10614          0          0
  rens             :       0.00       0.00          0          0          0
  reoptsols        :       0.00       0.00          0          0          0
  repair           :       0.00       0.00          0          0          0
  rins             :       3.34       0.00         22          0          0
  rootsoldiving    :      30.38       0.00         30          0          0
  rounding         :       1.40       0.00       4738          0          0
  shiftandpropagate:       0.00       0.00          0          0          0
  shifting         :      44.75       0.00      10321          4          3
  simplerounding   :       0.14       0.00          0          0          0
  subnlp           :     161.70       0.00          0          0          0
  trivial          :       0.00       0.00          2          2          2
  trivialnegation  :       0.00       0.00          0          0          0
  trustregion      :       0.00       0.00          0          0          0
  trysol           :       0.09       0.00          0          0          0
  twoopt           :       0.00       0.00          0          0          0
  undercover       :       1.59       0.00          1          1          1
  vbounds          :       0.00       0.00          0          0          0
  veclendiving     :      56.08       0.00        513          0          0
  zeroobj          :       0.00       0.00          0          0          0
  zirounding       :       0.57       0.00       1000          0          0
  other solutions  :          -          -          -          0          -
Diving (single)    :      Calls      Nodes   LP Iters Backtracks  Conflicts   MinDepth   MaxDepth   AvgDepth  RoundSols  NLeafSols  MinSolDpt  MaxSolDpt  AvgSolDpt
  actconsdiving    :          0          -          -          -          -          -          -          -          -          -          -          -          -
  coefdiving       :          0          -          -          -          -          -          -          -          -          -          -          -          -
  conflictdiving   :       1469      61548    1714420       1615      89352         54         92       63.0          0          -          -          -          -
  distributiondivin:        384      14178     583042        429       7015         51         70       57.1          0          -          -          -          -
  farkasdiving     :          0          -          -          -          -          -          -          -          -          -          -          -          -
  fracdiving       :        516      40993     579968        303       6477         64        227      100.7          0          -          -          -          -
  guideddiving     :        497      39922     602632        342      10552         60        196      100.6          0          2         89         92       90.5
  indicatordiving  :          0          -          -          -          -          -          -          -          -          -          -          -          -
  linesearchdiving :        521      20245     579579        514      31663         49         88       59.5          0          -          -          -          -
  pscostdiving     :        425      19688     595304        445      10675         56         80       66.7          0          1         67         67       67.0
  veclendiving     :        513      21395     579141        504      34919         55        144       62.1          0          -          -          -          -
Diving (adaptive)  :      Calls      Nodes   LP Iters Backtracks  Conflicts   MinDepth   MaxDepth   AvgDepth  RoundSols  NLeafSols  MinSolDpt  MaxSolDpt  AvgSolDpt
  actconsdiving    :          3        127       4763          3         33         57         58       57.3          0          -          -          -          -
  coefdiving       :         12        549      13785         11        784         55         92       65.7          0          -          -          -          -
  conflictdiving   :          0          -          -          -          -          -          -          -          -          -          -          -          -
  distributiondivin:          0          -          -          -          -          -          -          -          -          -          -          -          -
  farkasdiving     :          0          -          -          -          -          -          -          -          -          -          -          -          -
  fracdiving       :          3        405       3604          1         33         96        240      156.3          0          -          -          -          -
  guideddiving     :          1         71        889          0          0         96         96       96.0          0          -          -          -          -
  indicatordiving  :          0          -          -          -          -          -          -          -          -          -          -          -          -
  linesearchdiving :          5        195       5056          5        350         55         68       59.8          0          -          -          -          -
  pscostdiving     :          1         44       1392          1         40         64         64       64.0          0          -          -          -          -
  veclendiving     :          7        347       7109          3        410         61         88       70.6          0          -          -          -          -
Neighborhoods      :      Calls  SetupTime  SolveTime SolveNodes       Sols       Best       Exp3  EpsGreedy        UCB TgtFixRate  Opt  Inf Node Stal  Sol  Usr Othr Actv
  rens             :          4       0.38       0.97        102          0          0    0.00000   -1.00000    0.44251      0.522    0    3    0    1    0    0    0    1
  rins             :          1       0.00       0.00          0          0          0    0.00000   -1.00000    0.07131      0.900    0    0    0    0    0    0    1    1
  mutation         :          3       0.10       0.50        340          1          1    0.00000   -1.00000    0.48146      0.662    1    1    0    1    0    0    0    1
  localbranching   :          3       0.08       1.16       1270          3          3    0.00000   -1.00000    0.48726      0.662    0    1    0    1    1    0    0    1
  crossover        :          6       0.32       1.04        118          1          1    0.00000   -1.00000    0.49286      0.506    1    3    0    2    0    0    0    1
  proximity        :          2       0.09       0.13         82          0          0    0.00000   -1.00000    0.46084      0.850    0    1    0    1    0    0    0    1
  zeroobjective    :          2       0.12       0.06        107          0          0    0.00000   -1.00000    0.45492      0.850    0    1    0    1    0    0    0    1
  dins             :          2       0.15       0.08        118          0          0    0.00000   -1.00000    0.45085      0.850    0    1    0    1    0    0    0    1
  trustregion      :          0       0.00       0.00          0          0          0    0.00000   -1.00000    1.00000      0.900    0    0    0    0    0    0    0    0
Expressions        :   #IntEval  IntEvalTi   #RevProp  RevPropTi    DomReds    Cutoffs  #Estimate  EstimTime  Branching  #Simplify SimplifyTi Simplified
  pow              :          0       0.00          0       0.00          0          0          0       0.00          0          0       0.00          0
  prod             :       9900       0.00          0       0.00          0          0          0       0.00          0       6734       0.00          0
  sum              :          8       0.00          2       0.00          0          0          0       0.00          0          3       0.00          2
  var              :       6503       0.00          0       0.00          0          0          0       0.00          0      15568       0.00          0
  varidx           :          0       0.00          0       0.00          0          0          0       0.00          0          0       0.00          0
LP                 :       Time      Calls Iterations  Iter/call   Iter/sec  Time-0-It Calls-0-It    ItLimit
  primal LP        :     134.11      16545          0       0.00       0.00     134.05      16545
  dual LP          :    1726.95     172873   11344362      69.09    6569.02       3.84       8684
  lex dual LP      :       0.00          0          0       0.00          -
  barrier LP       :       0.00          0          0       0.00          -       0.00          0
  resolve instable :       0.00          0          0       0.00          -
  diving/probing LP:     497.98      19784    5692263     287.72   11430.71
  strong branching :      30.66       3149     225046      71.47    7340.05          -          -        206
    (at root node) :          -         19       6356     334.53          -
  conflict analysis:      11.47       7733      75582       9.77    6589.54
NLP relaxation     :
  solve time       :      15.62 (13 calls)
  convexity        :  nonconvex (40 linear rows, 0 convex ineq., 0 nonconvex ineq., 1784 nonlinear eq. or two-sided ineq.)
NLP Solvers        :  #Problems  ProblemTi    #Solves  SolveTime      #Iter  Time/Iter      #Okay #TimeLimit #IterLimit #LObjLimit #Interrupt  #NumError #EvalError  #OutOfMem #LicenseEr #OtherTerm   #GlobOpt    #LocOpt  #Feasible #LocInfeas #GlobInfea #Unbounded   #Unknown
  ipopt            :         12       7.60         43     150.66       1957       0.08         43          0          0          0          0          0          0          0          0          0          0         26          0         15          0          0          2
B&B Tree           :
  number of runs   :          1
  nodes            :     149036 (103730 internal, 45306 leaves)
  feasible leaves  :          3
  infeas. leaves   :        101
  objective leaves :      45202
  nodes (total)    :     149036 (103730 internal, 45306 leaves)
  nodes left       :      57686
  max depth        :         69
  max depth (total):         69
  backtracks       :      31893 (21.4%)
  early backtracks :          0 (0.0%)
  nodes exc. ref.  :          0 (0.0%)
  delayed cutoffs  :          1
  repropagations   :        144 (637 domain reductions, 0 cutoffs)
  avg switch length:       6.54
  switching time   :     176.14
Estim. Tree Size   :     299550
Estimation Tree    : 207461 nodes (149775 visited, 103730 internal, 46045 leaves, 57686 open), weight: 0.0000 completed 0.1168
Estimations        :      estim      value      trend resolution     smooth
  wbe              : 1145780612634936          -          -          -          -
  tree-profile     :         -1          -          -          -          -
  gap              :    2562610    0.67398    0.00002         64    2487844
  tree-weight      :     299550    0.00000    0.00000         64     297928
  leaf-frequency   :    1003968    0.30742    0.00003         64    1261489
  ssg              :    1096230    0.81556   -0.00010         64    1049371
  open-nodes       :     299550 57686.00000  161.24549         64     297928
Root Node          :
  First LP value   : -1.00000000000000e+00
  First LP Iters   :       1667 (11113.33 Iter/sec)
  First LP Time    :       0.15
  Final Dual Bound : -9.41870785910798e-01
  Final Root Iters :       5913
  Root LP Estimate : -3.11399242218240e-01
Solution           :
  Solutions found  :         26 (21 improvements)
  First Solution   : +1.00000000000000e+05   (in run 1, after 0 nodes, 0.00 seconds, depth 0, found by <trivial>)
  Gap First Sol.   :   infinite
  Gap Last Sol.    :      49.38 %
  Primal Bound     : -5.66060606060604e-01   (in run 1, after 90931 nodes, 1997.67 seconds, depth 12, found by <crossover>)
  Dual Bound       : -8.39878812658085e-01
  Gap              :      48.37 %
Integrals          :      Total       Avg%
  primal-dual      :  126005.35      35.00
  primal-ref       :          -          - (not evaluated)
  dual-ref         :          -          - (not evaluated)
